; benchmark generated from python API
(set-info :status unknown)
(declare-fun x_epoch () Int)
(declare-fun y_epoch () Int)
(declare-fun z_epoch () Int)
(declare-fun x_shift_period_512272_epoch () Int)
(declare-fun x_year () Int)
(declare-fun x_month () Int)
(declare-fun x_day () Int)
(declare-fun x_shift_period_512272_year () Int)
(declare-fun x_shift_period_512272_month () Int)
(declare-fun x_shift_period_512272_day () Int)
(declare-fun x_shift_period_519506_epoch () Int)
(declare-fun x_shift_period_519506_year () Int)
(declare-fun x_shift_period_519506_month () Int)
(declare-fun x_shift_period_519506_day () Int)
(assert
 (>= x_epoch (- 36584)))
(assert
 (<= x_epoch 36829))
(assert
 (= x_epoch 8371))
(assert
 (>= y_epoch (- 36584)))
(assert
 (<= y_epoch 36829))
(assert
 (>= z_epoch (- 36584)))
(assert
 (<= z_epoch 36829))
(assert
 (>= x_shift_period_512272_epoch (- 36584)))
(assert
 (<= x_shift_period_512272_epoch 36829))
(assert
 (let (($x608 (<= x_year 2100)))
 (let (($x150 (>= x_year 1900)))
 (let (($x632 (= x_month 11)))
 (let (($x221 (= x_month 9)))
 (let (($x292 (= x_month 6)))
 (let (($x735 (= x_month 4)))
 (let ((?x100 (ite (or $x735 $x292 $x221 $x632) 30 31)))
 (let (($x345 (= (mod x_year 4) 0)))
 (let (($x461 (= (mod x_year 100) 0)))
 (let (($x701 (= (mod x_year 400) 0)))
 (let (($x231 (ite $x701 true (ite $x461 false $x345))))
 (let (($x107 (= x_month 2)))
 (let ((?x242 (ite $x107 (ite $x231 29 28) ?x100)))
 (let (($x496 (>= x_day 1)))
 (let (($x321 (<= x_month 12)))
 (let (($x471 (>= x_month 1)))
 (and $x471 $x321 $x496 (<= x_day ?x242) $x150 $x608))))))))))))))))))
(assert
 (let (($x29 (or (and (= (mod 2000 4) 0) (and (distinct (mod 2000 100) 0) true)) (= (mod 2000 400) 0))))
 (let ((?x36 (ite (= 3 2) (ite $x29 31 31) (ite (= 3 1) (ite $x29 0 0) 0))))
 (let ((?x40 (ite $x29 60 59)))
 (let ((?x41 (ite (= 3 3) ?x40 ?x36)))
 (let ((?x46 (ite (= 3 4) (ite $x29 91 90) ?x41)))
 (let ((?x52 (ite (= 3 5) (ite $x29 121 120) ?x46)))
 (let ((?x58 (ite (= 3 6) (ite $x29 152 151) ?x52)))
 (let ((?x64 (ite (= 3 7) (ite $x29 182 181) ?x58)))
 (let ((?x70 (ite (= 3 8) (ite $x29 213 212) ?x64)))
 (let ((?x76 (ite (= 3 9) (ite $x29 244 243) ?x70)))
 (let ((?x82 (ite (= 3 10) (ite $x29 274 273) ?x76)))
 (let ((?x88 (ite (= 3 11) (ite $x29 305 304) ?x82)))
 (let ((?x16 (- (+ (* 365 (- 2000 1)) (div (- 2000 1) 4)) (div (- 2000 1) 100))))
 (let ((?x95 (+ (+ ?x16 (div (- 2000 1) 400)) (ite (= 3 12) (ite $x29 335 334) ?x88))))
 (let ((?x97 (+ ?x95 (- 1 1))))
 (let (($x345 (= (mod x_year 4) 0)))
 (let (($x461 (= (mod x_year 100) 0)))
 (let (($x701 (= (mod x_year 400) 0)))
 (let (($x231 (ite $x701 true (ite $x461 false $x345))))
 (let (($x142 (= 2 x_month)))
 (let ((?x395 (ite $x142 (ite $x231 31 31) (ite (= 1 x_month) (ite $x231 0 0) 0))))
 (let (($x270 (= 3 x_month)))
 (let (($x585 (= 4 x_month)))
 (let ((?x499 (ite $x585 (ite $x231 91 90) (ite $x270 (ite $x231 60 59) ?x395))))
 (let (($x510 (= 5 x_month)))
 (let (($x460 (= 6 x_month)))
 (let ((?x2018 (ite $x460 (ite $x231 152 151) (ite $x510 (ite $x231 121 120) ?x499))))
 (let (($x112 (= 7 x_month)))
 (let (($x601 (= 8 x_month)))
 (let ((?x606 (ite $x601 (ite $x231 213 212) (ite $x112 (ite $x231 182 181) ?x2018))))
 (let (($x659 (= 9 x_month)))
 (let (($x2109 (= 10 x_month)))
 (let ((?x3347 (ite $x2109 (ite $x231 274 273) (ite $x659 (ite $x231 244 243) ?x606))))
 (let (($x1089 (= 11 x_month)))
 (let (($x645 (= 12 x_month)))
 (let ((?x728 (ite $x645 (ite $x231 335 334) (ite $x1089 (ite $x231 305 304) ?x3347))))
 (let ((?x579 (- (+ (* 365 (- x_year 1)) (div (- x_year 1) 4)) (div (- x_year 1) 100))))
 (let ((?x2874 (+ (+ (+ ?x579 (div (- x_year 1) 400)) ?x728) (- x_day 1))))
 (= x_epoch (- ?x2874 ?x97)))))))))))))))))))))))))))))))))))))))))
(assert
 (let (($x706 (<= x_shift_period_512272_year 2100)))
 (let (($x3021 (>= x_shift_period_512272_year 1900)))
 (let (($x2670 (= x_shift_period_512272_month 11)))
 (let (($x302 (= x_shift_period_512272_month 9)))
 (let (($x3038 (= x_shift_period_512272_month 6)))
 (let (($x1956 (= x_shift_period_512272_month 4)))
 (let ((?x3633 (ite (or $x1956 $x3038 $x302 $x2670) 30 31)))
 (let (($x2441 (= (mod x_shift_period_512272_year 4) 0)))
 (let (($x2035 (= (mod x_shift_period_512272_year 100) 0)))
 (let (($x2218 (= (mod x_shift_period_512272_year 400) 0)))
 (let (($x2302 (ite $x2218 true (ite $x2035 false $x2441))))
 (let (($x1577 (= x_shift_period_512272_month 2)))
 (let (($x2203 (>= x_shift_period_512272_day 1)))
 (let (($x899 (<= x_shift_period_512272_month 12)))
 (let (($x967 (>= x_shift_period_512272_month 1)))
 (and $x967 $x899 $x2203 (<= x_shift_period_512272_day (ite $x1577 (ite $x2302 29 28) ?x3633)) $x3021 $x706)))))))))))))))))
(assert
 (let (($x29 (or (and (= (mod 2000 4) 0) (and (distinct (mod 2000 100) 0) true)) (= (mod 2000 400) 0))))
 (let ((?x36 (ite (= 3 2) (ite $x29 31 31) (ite (= 3 1) (ite $x29 0 0) 0))))
 (let ((?x40 (ite $x29 60 59)))
 (let ((?x41 (ite (= 3 3) ?x40 ?x36)))
 (let ((?x46 (ite (= 3 4) (ite $x29 91 90) ?x41)))
 (let ((?x52 (ite (= 3 5) (ite $x29 121 120) ?x46)))
 (let ((?x58 (ite (= 3 6) (ite $x29 152 151) ?x52)))
 (let ((?x64 (ite (= 3 7) (ite $x29 182 181) ?x58)))
 (let ((?x70 (ite (= 3 8) (ite $x29 213 212) ?x64)))
 (let ((?x76 (ite (= 3 9) (ite $x29 244 243) ?x70)))
 (let ((?x82 (ite (= 3 10) (ite $x29 274 273) ?x76)))
 (let ((?x88 (ite (= 3 11) (ite $x29 305 304) ?x82)))
 (let ((?x16 (- (+ (* 365 (- 2000 1)) (div (- 2000 1) 4)) (div (- 2000 1) 100))))
 (let ((?x95 (+ (+ ?x16 (div (- 2000 1) 400)) (ite (= 3 12) (ite $x29 335 334) ?x88))))
 (let ((?x97 (+ ?x95 (- 1 1))))
 (let (($x2441 (= (mod x_shift_period_512272_year 4) 0)))
 (let (($x2035 (= (mod x_shift_period_512272_year 100) 0)))
 (let (($x2218 (= (mod x_shift_period_512272_year 400) 0)))
 (let (($x2302 (ite $x2218 true (ite $x2035 false $x2441))))
 (let ((?x1636 (ite (= 1 x_shift_period_512272_month) (ite $x2302 0 0) 0)))
 (let ((?x3607 (ite (= 3 x_shift_period_512272_month) (ite $x2302 60 59) (ite (= 2 x_shift_period_512272_month) (ite $x2302 31 31) ?x1636))))
 (let ((?x2093 (ite (= 5 x_shift_period_512272_month) (ite $x2302 121 120) (ite (= 4 x_shift_period_512272_month) (ite $x2302 91 90) ?x3607))))
 (let ((?x1542 (ite (= 7 x_shift_period_512272_month) (ite $x2302 182 181) (ite (= 6 x_shift_period_512272_month) (ite $x2302 152 151) ?x2093))))
 (let ((?x2291 (ite (= 9 x_shift_period_512272_month) (ite $x2302 244 243) (ite (= 8 x_shift_period_512272_month) (ite $x2302 213 212) ?x1542))))
 (let ((?x1934 (ite (= 11 x_shift_period_512272_month) (ite $x2302 305 304) (ite (= 10 x_shift_period_512272_month) (ite $x2302 274 273) ?x2291))))
 (let ((?x3569 (+ (* 365 (- x_shift_period_512272_year 1)) (div (- x_shift_period_512272_year 1) 4))))
 (let ((?x248 (+ (- ?x3569 (div (- x_shift_period_512272_year 1) 100)) (div (- x_shift_period_512272_year 1) 400))))
 (let ((?x3152 (+ ?x248 (ite (= 12 x_shift_period_512272_month) (ite $x2302 335 334) ?x1934))))
 (= x_shift_period_512272_epoch (- (+ ?x3152 (- x_shift_period_512272_day 1)) ?x97)))))))))))))))))))))))))))))))
(assert
 (let ((?x385 (* 12 x_year)))
 (let ((?x2832 (+ ?x385 (- x_month 1))))
 (let ((?x2390 (+ ?x2832 1)))
 (let ((?x577 (div ?x2390 12)))
 (= x_shift_period_512272_year ?x577))))))
(assert
 (let ((?x1741 (+ (mod (+ (+ (* 12 x_year) (- x_month 1)) 1) 12) 1)))
 (= x_shift_period_512272_month ?x1741)))
(assert
 (let ((?x1741 (+ (mod (+ (+ (* 12 x_year) (- x_month 1)) 1) 12) 1)))
 (let ((?x2934 (ite (or (= ?x1741 4) (= ?x1741 6) (= ?x1741 9) (= ?x1741 11)) 30 31)))
 (let ((?x385 (* 12 x_year)))
 (let ((?x2832 (+ ?x385 (- x_month 1))))
 (let ((?x2390 (+ ?x2832 1)))
 (let ((?x577 (div ?x2390 12)))
 (let (($x2568 (ite (= (mod ?x577 400) 0) true (ite (= (mod ?x577 100) 0) false (= (mod ?x577 4) 0)))))
 (let ((?x2911 (ite (= ?x1741 2) (ite $x2568 29 28) ?x2934)))
 (let ((?x861 (ite (<= x_day ?x2911) x_day ?x2911)))
 (let (($x632 (= x_month 11)))
 (let (($x221 (= x_month 9)))
 (let (($x292 (= x_month 6)))
 (let (($x735 (= x_month 4)))
 (let ((?x100 (ite (or $x735 $x292 $x221 $x632) 30 31)))
 (let (($x345 (= (mod x_year 4) 0)))
 (let (($x461 (= (mod x_year 100) 0)))
 (let (($x701 (= (mod x_year 400) 0)))
 (let (($x231 (ite $x701 true (ite $x461 false $x345))))
 (let (($x107 (= x_month 2)))
 (let ((?x242 (ite $x107 (ite $x231 29 28) ?x100)))
 (let (($x546 (= x_day ?x242)))
 (let ((?x591 (ite false (ite $x546 ?x2911 ?x861) ?x861)))
 (= x_shift_period_512272_day ?x591))))))))))))))))))))))))
(assert
 (= y_epoch x_shift_period_512272_epoch))
(assert
 (>= x_shift_period_519506_epoch (- 36584)))
(assert
 (<= x_shift_period_519506_epoch 36829))
(assert
 (let (($x3041 (<= x_shift_period_519506_year 2100)))
 (let (($x1742 (>= x_shift_period_519506_year 1900)))
 (let (($x1790 (= x_shift_period_519506_month 11)))
 (let (($x3757 (= x_shift_period_519506_month 9)))
 (let (($x2300 (= x_shift_period_519506_month 6)))
 (let (($x3625 (= x_shift_period_519506_month 4)))
 (let ((?x3080 (ite (or $x3625 $x2300 $x3757 $x1790) 30 31)))
 (let (($x3372 (= (mod x_shift_period_519506_year 4) 0)))
 (let (($x1831 (= (mod x_shift_period_519506_year 100) 0)))
 (let (($x194 (= (mod x_shift_period_519506_year 400) 0)))
 (let (($x165 (ite $x194 true (ite $x1831 false $x3372))))
 (let (($x1924 (= x_shift_period_519506_month 2)))
 (let (($x3449 (>= x_shift_period_519506_day 1)))
 (let (($x349 (<= x_shift_period_519506_month 12)))
 (let (($x2541 (>= x_shift_period_519506_month 1)))
 (and $x2541 $x349 $x3449 (<= x_shift_period_519506_day (ite $x1924 (ite $x165 29 28) ?x3080)) $x1742 $x3041)))))))))))))))))
(assert
 (let (($x29 (or (and (= (mod 2000 4) 0) (and (distinct (mod 2000 100) 0) true)) (= (mod 2000 400) 0))))
 (let ((?x36 (ite (= 3 2) (ite $x29 31 31) (ite (= 3 1) (ite $x29 0 0) 0))))
 (let ((?x40 (ite $x29 60 59)))
 (let ((?x41 (ite (= 3 3) ?x40 ?x36)))
 (let ((?x46 (ite (= 3 4) (ite $x29 91 90) ?x41)))
 (let ((?x52 (ite (= 3 5) (ite $x29 121 120) ?x46)))
 (let ((?x58 (ite (= 3 6) (ite $x29 152 151) ?x52)))
 (let ((?x64 (ite (= 3 7) (ite $x29 182 181) ?x58)))
 (let ((?x70 (ite (= 3 8) (ite $x29 213 212) ?x64)))
 (let ((?x76 (ite (= 3 9) (ite $x29 244 243) ?x70)))
 (let ((?x82 (ite (= 3 10) (ite $x29 274 273) ?x76)))
 (let ((?x88 (ite (= 3 11) (ite $x29 305 304) ?x82)))
 (let ((?x16 (- (+ (* 365 (- 2000 1)) (div (- 2000 1) 4)) (div (- 2000 1) 100))))
 (let ((?x95 (+ (+ ?x16 (div (- 2000 1) 400)) (ite (= 3 12) (ite $x29 335 334) ?x88))))
 (let ((?x97 (+ ?x95 (- 1 1))))
 (let (($x3372 (= (mod x_shift_period_519506_year 4) 0)))
 (let (($x1831 (= (mod x_shift_period_519506_year 100) 0)))
 (let (($x194 (= (mod x_shift_period_519506_year 400) 0)))
 (let (($x165 (ite $x194 true (ite $x1831 false $x3372))))
 (let ((?x2057 (ite (= 1 x_shift_period_519506_month) (ite $x165 0 0) 0)))
 (let ((?x4256 (ite (= 3 x_shift_period_519506_month) (ite $x165 60 59) (ite (= 2 x_shift_period_519506_month) (ite $x165 31 31) ?x2057))))
 (let ((?x3255 (ite (= 5 x_shift_period_519506_month) (ite $x165 121 120) (ite (= 4 x_shift_period_519506_month) (ite $x165 91 90) ?x4256))))
 (let ((?x2428 (ite (= 7 x_shift_period_519506_month) (ite $x165 182 181) (ite (= 6 x_shift_period_519506_month) (ite $x165 152 151) ?x3255))))
 (let ((?x3217 (ite (= 9 x_shift_period_519506_month) (ite $x165 244 243) (ite (= 8 x_shift_period_519506_month) (ite $x165 213 212) ?x2428))))
 (let ((?x709 (ite (= 11 x_shift_period_519506_month) (ite $x165 305 304) (ite (= 10 x_shift_period_519506_month) (ite $x165 274 273) ?x3217))))
 (let ((?x1843 (+ (* 365 (- x_shift_period_519506_year 1)) (div (- x_shift_period_519506_year 1) 4))))
 (let ((?x867 (+ (- ?x1843 (div (- x_shift_period_519506_year 1) 100)) (div (- x_shift_period_519506_year 1) 400))))
 (let ((?x1271 (+ ?x867 (ite (= 12 x_shift_period_519506_month) (ite $x165 335 334) ?x709))))
 (= x_shift_period_519506_epoch (- (+ ?x1271 (- x_shift_period_519506_day 1)) ?x97)))))))))))))))))))))))))))))))
(assert
 (= x_shift_period_519506_epoch (+ x_epoch 30)))
(assert
 (= z_epoch x_shift_period_519506_epoch))
(assert
 (not (= y_epoch z_epoch)))
(check-sat)
